
Gurobi 10.0.1 (win64) logging started Thu Oct  5 12:31:59 2023

Set parameter LogFile to value "./results//log/BA_11_deadline_heurTrue.log"
Gurobi Optimizer version 10.0.1 build v10.0.1rc0 (win64)

CPU model: AMD Ryzen 7 3700X 8-Core Processor, instruction set [SSE2|AVX|AVX2]
Thread count: 8 physical cores, 16 logical processors, using up to 16 threads

Optimize a model with 295 rows, 296 columns and 1050 nonzeros
Model fingerprint: 0x14de514c
Model has 1 quadratic constraint
Variable types: 0 continuous, 296 integer (265 binary)
Coefficient statistics:
  Matrix range     [1e+00, 1e+07]
  QMatrix range    [1e+00, 1e+00]
  QLMatrix range   [1e+00, 1e+01]
  Objective range  [1e+00, 1e+00]
  Bounds range     [1e+00, 1e+00]
  RHS range        [1e+00, 3e+07]

User MIP start did not produce a new incumbent solution
User MIP start violates constraint initial_start_time_job2_stage0_machine1_constraint by 1.000000000

Presolve removed 69 rows and 172 columns
Presolve time: 0.00s
Presolved: 237 rows, 134 columns, 996 nonzeros
Variable types: 0 continuous, 134 integer (93 binary)

Root relaxation: objective 0.000000e+00, 43 iterations, 0.00 seconds (0.00 work units)
Another try with MIP start

    Nodes    |    Current Node    |     Objective Bounds      |     Work
 Expl Unexpl |  Obj  Depth IntInf | Incumbent    BestBd   Gap | It/Node Time

H    0     0                      68.0000000    0.00000   100%     -    0s
     0     0    0.00000    0    4   68.00000    0.00000   100%     -    0s
H    0     0                      59.0000000    0.00000   100%     -    0s
     0     0    0.00000    0    4   59.00000    0.00000   100%     -    0s
     0     0    0.00000    0   11   59.00000    0.00000   100%     -    0s
     0     0    0.00000    0    9   59.00000    0.00000   100%     -    0s
     0     0    0.00000    0    7   59.00000    0.00000   100%     -    0s
     0     0    0.00000    0    5   59.00000    0.00000   100%     -    0s
     0     0    0.00000    0    9   59.00000    0.00000   100%     -    0s
H    0     0                      58.0000000    0.00000   100%     -    0s
     0     0    0.00000    0    5   58.00000    0.00000   100%     -    0s
     0     0    0.00000    0    5   58.00000    0.00000   100%     -    0s
H    0     0                      57.0000000    0.00000   100%     -    0s
     0     0    0.00000    0    5   57.00000    0.00000   100%     -    0s
     0     2    0.00000    0    5   57.00000    0.00000   100%     -    0s
H   31    18                      55.0000000    5.00000  90.9%  22.2    0s
H  123    95                      54.0000000    6.00000  88.9%  10.8    0s
H  175   130                      49.0000000    6.00000  87.8%   9.9    0s
H  263   147                      43.0000000    6.00000  86.0%   8.9    0s
H15322   301                      34.0000000    6.00000  82.4%   0.3    0s

Cutting planes:
  Learned: 17

Explored 19753 nodes (46182 simplex iterations) in 0.69 seconds (0.36 work units)
Thread count was 16 (of 16 available processors)

Solution count 9: 34 43 49 ... 68

Optimal solution found (tolerance 1.00e-04)
Best objective 3.400000000000e+01, best bound 3.400000000000e+01, gap 0.0000%
Warning: constraint name "precedence between 0,0 to 0,2 if x_[0,0,0,2,3]=0, i.e. 0,2 before 0,0" has a space
Warning: constraint name "precedence between 0,0 to 0,2 if x_[0,0,0,2,3]=0, i.e. 0,2 before 0,0" has a space
Warning: default constraint names used to write mps file
